\ LP format - for model browsing. Use MPS format to capture full model detail.
Maximize
  4 x_1 + 9 x_2 + 8 x_3 + 4 x_4 + 3 x_5 + 10 x_6 + 2 x_7 + 3 x_8 + 8 x_9
   + 3 x_10
Subject To
 C_1: 2 x_2 + 9 x_4 + 5 x_5 + 3 x_6 + 2 x_7 + 5 x_8 <= 13
 C_2: 7 x_2 + 5 x_3 + 2 x_5 + 7 x_8 <= 10
 C_3: x_1 + 5 x_2 + 5 x_3 + 3 x_4 + 5 x_6 + 3 x_9 + 10 x_10 <= 16
 C_4: 9 x_2 + 5 x_3 + 9 x_5 + 4 x_6 + 8 x_7 + 10 x_9 <= 22
 C_5: 4 x_1 + 8 x_3 + 10 x_4 + 8 x_6 + 2 x_7 + 3 x_9 + 4 x_10 <= 19
 C_6: 3 x_1 + 10 x_3 + 5 x_5 + 2 x_6 + 4 x_8 + 7 x_10 <= 15
 C_7: 7 x_1 + 7 x_2 + 8 x_3 + 3 x_6 + x_7 + x_8 <= 13
 C_8: 7 x_4 + 9 x_6 + 5 x_8 + 8 x_9 + 5 x_10 <= 17
 C_9: 5 x_3 + 4 x_5 + 7 x_6 + 9 x_8 + 7 x_10 <= 16
 C_10: 2 x_1 + 9 x_7 + 7 x_8 + 7 x_9 <= 12
Bounds
Binaries
 x_1 x_2 x_3 x_4 x_5 x_6 x_7 x_8 x_9 x_10
End
